m = 2;
n = 20;
l = [10, 10, ];
s = [1, 1, 1, 1, 1, 1, 1, 1, 1, 1, 1, 1, 1, 1, 1, 1, 1, 1, 1, 1, ];
x = [1, 4, 2, 1, 0, 0, 2, 2, 3, 3, 0, 3, 1, 3, 4, 1, 3, 4, 1, 2, 2, ];
y = [3, 1, 3, 1, 3, 2, 4, 1, 3, 2, 1, 0, 2, 4, 3, 4, 1, 2, 0, 0, 2, ];
% lower_bound = 21;
length = [10, 10, ];
%[9, 17]
%[]
%[]
%[]
%[]
%[]
%[]
%[14]
%[]
%[]
%[]
%[]
%[8]
%[]
%[]
%[]
%[]
%[13]
%[]
%[]
%[]
%[]
%[]
%[]
%[2, 6]
%[]
%[]
%[]
%[]
%[]
%[]
%[]
%[15]
%[]
%[]
%[]
%[]
%[0]
%[]
%[]
%[]
%[]
%[4]
%[]
%[]
%[]
%[]
%[]
%[]
%[5, 12]
%[]
%[]
%[]
%[]
%[]
%[]
%[]
%[]
%[10]
%[]
%[]
%[]
%[]
%[3]
%[]
%[]
%[]
%[]
%[18]
%[]
%[]
%[]
%[]
%[]
%[]
%[]
%[7, 19]
%[]
%[]
%[]
%[]
%[]
%[]
%[11]
%[]
%[]
%[]
%[]
%[16]
%[]
%[]
%[]
%[]
%[1]
%[]
%[]
%[]
%[]
%[]
%[]
%[2, 0, 0, 0, 0, 0, 0, 1, 0, 0, 0, 0, 1, 0, 0, 0, 0, 1, 0, 0, 0, 0, 0, 0, 2, 0, 0, 0, 0, 0, 0, 0, 1, 0, 0, 0, 0, 1, 0, 0, 0, 0, 1, 0, 0, 0, 0, 0, 0, 2, 0, 0, 0, 0, 0, 0, 0, 0, 1, 0, 0, 0, 0, 1, 0, 0, 0, 0, 1, 0, 0, 0, 0, 0, 0, 0, 2, 0, 0, 0, 0, 0, 0, 1, 0, 0, 0, 0, 1, 0, 0, 0, 0, 1, 0, 0, 0, 0, 0, 0]
